nPeces = 10;

durada = [50,40,45,45,20,45,10,5,10,10];

nInstruments = 4;

requereix = [| 2, 1, 2, 2, 
| 1, 2, 2, 0, 
| 1, 1, 2, 0, 
| 0, 2, 0, 0, 
| 0, 0, 1, 2, 
| 1, 1, 2, 1, 
| 2, 1, 0, 0, 
| 0, 2, 2, 2, 
| 1, 0, 2, 2, 
| 1, 1, 1, 1,  
|];

nMusics = 20;

saptocar = [| false, true, true, true, 
| false, true, true, true, 
| true, true, true, false, 
| false, true, false, false, 
| false, true, false, false, 
| false, true, false, false, 
| false, false, true, false, 
| true, false, true, true, 
| false, true, false, false, 
| false, true, true, true, 
| true, false, true, true, 
| false, true, true, false, 
| true, false, true, false, 
| false, true, true, false, 
| false, true, false, false, 
| true, false, false, false, 
| false, false, true, false, 
| false, false, true, false, 
| false, true, true, false, 
| true, true, true, false, 
|];

pressupost = 2500;

salari = [3,3,3,2,2,2,2,3,2,3,3,2,2,2,2,2,2,2,2,3];

nPrecs = 6;
pred = [2,2,2,3,5,6];
succ = [4,5,7,10,6,8];

